Normalized Data/p01_26_normalized_split0.vrp
NAME:p01_26_NORMALIZED_split
BEST_KNOWN: 0
COMMENT: 0
DIMENSION: 187
CAPACITY: 100
EDGE_WEIGHT_FORMAT: FUNCTION
EDGE_WEIGHT_TYPE: EXACT_2D
NODE_COORD_SECTION
1 0.00000 0.00000
2 -2 26
3 -2 26
4 28 -34
5 28 -34
6 28 -34
7 28 -34
8 18 11
9 18 11
10 -48 7
11 -48 7
12 -48 7
13 -39 37
14 -39 37
15 -24 -34
16 -24 -34
17 -24 -34
18 -24 -34
19 -24 -34
20 -9 -5
21 -9 -5
22 -9 -5
23 12 -37
24 12 -37
25 12 -37
26 12 -37
27 12 -37
28 12 -37
29 12 -37
30 28 -42
31 -31 -32
32 -31 -32
33 1 22
34 1 22
35 1 22
36 1 22
37 -16 6
38 -16 6
39 -16 6
40 -16 6
41 29 -23
42 29 -23
43 29 -23
44 -10 18
45 -10 18
46 39 1
47 39 1
48 -5 -46
49 -5 -46
50 -12 18
51 -1 -38
52 -1 -38
53 -1 -38
54 -1 -38
55 -1 -38
56 -1 -38
57 40 -43
58 40 -43
59 9 21
60 9 21
61 9 21
62 9 21
63 9 21
64 -45 -35
65 -45 -35
66 -45 -35
67 -11 -1
68 -11 -1
69 -11 -1
70 -35 46
71 -35 46
72 -35 46
73 -35 46
74 -35 46
75 -35 46
76 -35 46
77 -42 -36
78 -42 -36
79 -42 -36
80 26 38
81 26 38
82 9 41
83 9 41
84 9 41
85 9 41
86 9 41
87 9 41
88 -29 18
89 -29 18
90 -29 18
91 -29 18
92 1 -47
93 1 -47
94 1 -47
95 1 -47
96 1 -47
97 1 -47
98 36 -47
99 36 -47
100 36 -47
101 36 -47
102 -21 -36
103 -21 -36
104 -21 -36
105 -21 -36
106 -21 -36
107 -19 18
108 -19 18
109 28 -13
110 28 -13
111 28 -13
112 48 15
113 48 15
114 48 15
115 48 15
116 48 15
117 10 -12
118 10 -12
119 10 -12
120 10 -12
121 10 -12
122 24 -11
123 24 -11
124 24 -11
125 24 -11
126 -33 47
127 -33 47
128 -33 47
129 -33 47
130 -33 47
131 7 -21
132 7 -21
133 7 -21
134 43 -37
135 43 -37
136 43 -37
137 43 -37
138 43 -37
139 1 2
140 1 2
141 1 2
142 1 2
143 1 2
144 24 5
145 24 5
146 24 5
147 -4 33
148 -4 33
149 -4 33
150 -4 33
151 -30 10
152 -30 10
153 -30 10
154 -16 -40
155 -16 -40
156 -16 -40
157 37 -47
158 37 -47
159 37 -47
160 37 -47
161 37 -47
162 18 -38
163 18 -38
164 18 -38
165 18 -38
166 18 -38
167 -15 -50
168 -15 -50
169 -26 34
170 -26 34
171 -26 34
172 -27 25
173 -27 25
174 -27 25
175 -27 25
176 -27 25
177 -27 25
178 -27 25
179 45 -31
180 45 -31
181 45 -31
182 45 -31
183 45 -31
184 37 -24
185 37 -24
186 37 -24
187 37 -24
DEMAND_SECTION
1 0
2 20
3 10
4 20
5 10
6 1
7 1
8 20
9 1
10 20
11 1
12 1
13 10
14 5
15 20
16 5
17 1
18 1
19 1
20 20
21 20
22 1
23 20
24 20
25 5
26 1
27 1
28 1
29 1
30 20
31 20
32 10
33 10
34 1
35 1
36 1
37 10
38 1
39 1
40 1
41 20
42 10
43 5
44 10
45 5
46 20
47 1
48 20
49 5
50 20
51 20
52 10
53 5
54 1
55 1
56 1
57 20
58 1
59 20
60 10
61 5
62 1
63 1
64 20
65 10
66 1
67 10
68 5
69 1
70 20
71 20
72 5
73 1
74 1
75 1
76 1
77 10
78 1
79 1
80 20
81 1
82 20
83 10
84 5
85 1
86 1
87 1
88 20
89 20
90 5
91 1
92 20
93 20
94 5
95 1
96 1
97 1
98 20
99 10
100 5
101 1
102 20
103 10
104 1
105 1
106 1
107 20
108 20
109 20
110 20
111 10
112 20
113 20
114 5
115 1
116 1
117 20
118 5
119 1
120 1
121 1
122 20
123 1
124 1
125 1
126 20
127 20
128 5
129 1
130 1
131 20
132 5
133 1
134 10
135 5
136 1
137 1
138 1
139 10
140 5
141 1
142 1
143 1
144 10
145 5
146 1
147 20
148 20
149 5
150 1
151 10
152 1
153 1
154 20
155 20
156 5
157 20
158 10
159 1
160 1
161 1
162 20
163 20
164 1
165 1
166 1
167 20
168 10
169 10
170 5
171 1
172 20
173 10
174 5
175 1
176 1
177 1
178 1
179 10
180 5
181 1
182 1
183 1
184 20
185 5
186 1
187 1
DEPOT_SECTION
1
-1
EOF