Normalized Data/p01_26_normalized_split0.sol
186 -2 1 148 149 147 146 35 34 32 33 -5 6 3 4 29 164 161 162 163 165 -7 8 115 114 111 112 113 46 45 145 143 -17 101 167 166 153 155 154 -18 14 16 15 30 31 77 78 76 63 64 65 -19 20 21 66 68 67 49 43 44 -39 37 36 38 90 89 87 88 107 106 -41 40 42 134 133 136 137 135 181 182 179 178 180 184 185 186 183 -50 52 28 26 25 27 24 22 23 132 131 130 -53 55 54 51 91 94 95 93 96 92 48 47 102 105 104 103 -56 57 156 157 158 159 160 97 100 99 98 117 119 118 -58 59 61 62 60 80 79 85 83 86 81 84 82 -120 116 123 124 122 121 108 110 109 144 -139 -140 142 138 141 -151 150 152 9 11 10 13 12 168 169 171 172 177 173 -170 128 125 129 127 126 75 72 70 69 73 74 71 176 174 175 0 





OBJ=
1539.308
BEST_KNOWN=
0.000